74 74
25 41
28 60
19 63
4 16
20 32
36 34
11 27
13 37
29 20
35 5
20 35
11 55
36 39
18 10
32 4
26 33
18 73
12 57
34 45
33 61
29 9
31 40
8 7
5 36
3 8
9 47
4 74
31 13
13 72
1 23
21 17
23 64
26 24
16 58
32 15
23 43
6 59
27 65
27 42
33 51
37 68
19 30
34 14
3 66
14 31
14 48
30 62
22 25
7 2
21 54
10 1
9 49
7 71
2 56
1 12
22 18
24 50
37 22
35 67
30 29
12 52
10 3
17 53
5 38
16 69
15 46
17 11
25 26
2 28
8 19
15 6
24 70
28 21
6 44
